data/benchmarks/bayes/75-12-4-q.cnf
p cnf 672 657
c weights 0.706746 0.293254 1 1 1 1 1 1 1 1 1 1 1 1 1 1 1 1 1 1 1 1 1 1 1 1 1 1 1 1 1 1 1 1 1 1 1 1 1 1 1 1 1 1 1 1 1 1 1 1 1 1 1 1 1 1 1 1 1 1 1 1 1 1 1 1 1 1 1 1 1 1 1 1 1 1 1 1 1 1 1 1 1 1 1 1 1 1 1 1 1 1 1 1 1 1 1 1 1 1 1 1 1 1 1 1 1 1 1 1 1 1 1 1 1 1 1 1 1 1 1 1 1 1 1 1 1 1 1 1 1 1 1 1 1 1 1 1 1 1 1 1 1 1 1 1 1 1 1 1 1 1 1 1 1 1 1 1 1 1 1 1 1 1 1 1 1 1 1 1 1 1 1 1 1 1 1 1 1 1 1 1 1 1 1 1 1 1 1 1 1 1 1 1 1 1 1 1 1 1 1 1 1 1 1 1 1 1 1 1 1 1 1 1 1 1 1 1 1 1 1 1 1 1 1 1 1 1 1 1 1 1 1 1 1 1 1 1 1 1 1 1 1 1 1 1 1 1 1 1 1 1 1 1 1 1 1 1 1 1 1 1 1 1 1 1 1 1 1 1 1 1 1 1 1 1 1 1 1 1 1 1 1 1 1 1 1 1 0.5 0.5 0.5 0.5 0.5 0.5 0.5 0.5 0.5 0.5 0.5 0.5 0.5 0.5 0.5 0.5 0.5 0.5 0.5 0.5 0.868587 0.131413 0.347538 0.652462 0.5 0.5 0.5 0.5 0.5 0.5 0.5 0.5 0.5 0.5 0.5 0.5 0.306572 0.6934279999999999 0.710944 0.289056 0.5 0.5 0.5 0.5 0.5 0.5 0.5 0.5 0.5 0.5 0.5 0.5 0.5 0.5 0.5 0.5 0.749631 0.25036899999999995 0.307186 0.692814 0.65759 0.34241 0.792007 0.20799299999999998 0.5 0.5 0.5 0.5 0.5 0.5 0.5 0.5 0.5 0.5 0.5 0.5 0.5 0.5 0.5 0.5 0.5 0.5 0.5 0.5 0.5 0.5 0.5 0.5 0.5 0.5 0.5 0.5 0.5 0.5 0.5 0.5 0.5 0.5 0.5 0.5 0.5 0.5 0.5 0.5 0.5 0.5 0.5 0.5 0.5 0.5 0.5 0.5 0.5 0.5 0.5 0.5 0.5 0.5 0.5 0.5 0.773115 0.226885 0.611044 0.38895599999999997 0.375855 0.624145 0.425495 0.574505 0.5 0.5 0.5 0.5 0.5 0.5 0.5 0.5 0.5 0.5 0.5 0.5 0.322296 0.677704 0.349477 0.650523 0.274451 0.725549 0.369574 0.6304259999999999 0.5 0.5 0.5 0.5 0.5 0.5 0.5 0.5 0.5 0.5 0.5 0.5 0.5 0.5 0.5 0.5 0.483845 0.5161549999999999 0.19756 0.80244 0.784209 0.21579099999999996 0.25696 0.7430399999999999 0.160064 0.839936 0.682455 0.31754499999999997 0.471082 0.528918 0.724247 0.275753 0.5 0.5 0.5 0.5 0.5 0.5 0.5 0.5 0.5 0.5 0.5 0.5 0.5 0.5 0.5 0.5 0.5 0.5 0.5 0.5 0.5 0.5 0.5 0.5 0.5 0.5 0.5 0.5 0.5 0.5 0.5 0.5 0.314445 0.685555 0.0841898 0.9158102 0.555004 0.44499599999999995 0.571405 0.42859499999999995 0.715068 0.28493199999999996 0.253861 0.746139 0.363876 0.636124 0.439315 0.560685 0.5 0.5 0.5 0.5 0.5 0.5 0.5 0.5 0.5 0.5 0.5 0.5 0.5 0.5 0.5 0.5 0.5 0.5 0.5 0.5 0.5 0.5 0.5 0.5 0.5 0.5 0.5 0.5 0.5 0.5 0.5 0.5 0.5 0.5 0.5 0.5 0.5 0.5 0.5 0.5 0.5 0.5 0.5 0.5 0.5 0.5 0.5 0.5 0.5 0.5 0.5 0.5 0.5 0.5 0.5 0.5 0.5 0.5 0.5 0.5 0.5 0.5 0.5 0.5 0.5 0.5 0.5 0.5 0.37632 0.62368 0.615619 0.384381 0.334177 0.665823 0.228233 0.771767 0.5 0.5 0.5 0.5 0.5 0.5 0.5 0.5 0.5 0.5 0.5 0.5 0.5 0.5 0.5 0.5 0.00899117 0.99100883 0.178379 0.8216209999999999 0.5 0.5 0.5 0.5 0.5 0.5 0.5 0.5 0.5 0.5 0.5 0.5 0.5 0.5 0.5 0.5 0.5 0.5 0.5 0.5 0.5 0.5 0.5 0.5 0.5 0.5 0.5 0.5 0.5 0.5 0.5 0.5 0.5 0.5 0.5 0.5 0.5 0.5 0.5 0.5 0.5 0.5 0.5 0.5 0.5 0.5 0.5 0.5 0.5 0.5 0.5 0.5 0.5 0.5 0.5 0.5 0.5 0.5 0.5 0.5 0.5 0.5 0.5 0.5 0.5 0.5 0.5 0.5 0.5 0.5 0.5 0.5 0.5 0.5 0.5 0.5 0.5 0.5 0.5 0.5 0.5 0.5 0.5 0.5 0.5 0.5 0.5 0.5 0.5 0.5 0.5 0.5 0.973289 0.02671100000000004 0.887549 0.11245099999999997 0.0450248 0.9549752 0.0253122 0.9746878 0.474419 0.5255810000000001 0.545204 0.454796 0.845585 0.15441499999999997 0.899491 0.10050899999999996 0.5 0.5 0.5 0.5 0.5 0.5 0.5 0.5 0.5 0.5 0.5 0.5 0.5 0.5 0.5 0.5 0.633016 0.366984 0.63165 0.36834999999999996 0.61027 0.38973 0.165132 0.8348679999999999 0.5 0.5 0.5 0.5 0.5 0.5 0.5 0.5 0.5 0.5 0.5 0.5 0.5 0.5 0.5 0.5 0.1291 0.8709 0.060799 0.939201 0.844917 0.15508299999999997 0.662569 0.33743100000000004 0.5 0.5 0.5 0.5 0.5 0.5 0.5 0.5 0.5 0.5 0.5 0.5 0.5 0.5 0.5 0.5 0.5 0.5 0.5 0.5 0.5 0.5 0.5 0.5 0.366103 0.6338969999999999 0.467243 0.5327569999999999 0.5 0.5 0.5 0.5 0.5 0.5 0.5 0.5 0.5 0.5 0.5 0.5 0.5 0.5 0.5 0.5 0.5 0.5 0.5 0.5 0.5 0.5 0.5 0.5 0.5 0.5 0.5 0.5 0.5 0.5 0.5 0.5 0.438109 0.5618909999999999 0.226169 0.7738309999999999 0.517757 0.482243 0.0798653 0.9201347 0.5 0.5 0.5 0.5 0.5 0.5 0.5 0.5 0.5 0.5 0.5 0.5 0.5 0.5 0.5 0.5 0.5 0.5 0.5 0.5 0.5 0.5 0.5 0.5 0.0175933 0.9824067 0.0756846 0.9243154 0.476587 0.523413 0.0807606 0.9192394 0.5 0.5 0.5 0.5 0.5 0.5 0.5 0.5 0.5 0.5 0.5 0.5 0.5 0.5 0.5 0.5 0.5 0.5 0.5 0.5 0.5 0.5 0.5 0.5 0.5 0.5 0.5 0.5 0.5 0.5 0.5 0.5 0.5 0.5 0.5 0.5 0.5 0.5 0.5 0.5 0.5 0.5 0.5 0.5 0.5 0.5 0.5 0.5 0.5 0.5 0.5 0.5 0.5 0.5 0.5 0.5 0.5 0.5 0.5 0.5 0.899641 0.10035899999999998 0.140981 0.859019 0.364364 0.635636 0.470921 0.5290790000000001 0.5 0.5 0.5 0.5 0.5 0.5 0.5 0.5 0.5 0.5 0.5 0.5 0.5 0.5 0.5 0.5 0.5 0.5 0.5 0.5 0.5 0.5 0.5 0.5 0.5 0.5 0.5 0.5 0.5 0.5 0.5 0.5 0.5 0.5 0.5 0.5 0.5 0.5 0.5 0.5 0.5 0.5 0.5 0.5 0.663055 0.33694500000000005 0.365309 0.634691 0.613222 0.38677799999999996 0.502063 0.49793699999999996 0.5 0.5 0.5 0.5 0.5 0.5 0.5 0.5 0.74886 0.25114000000000003 0.552372 0.447628 0.344042 0.655958 0.164702 0.835298 0.383287 0.6167130000000001 0.661946 0.33805399999999997 0.113405 0.886595 0.106639 0.893361 0.5 0.5 0.5 0.5 0.5 0.5 0.5 0.5 0.5 0.5 0.5 0.5 0.5 0.5 0.5 0.5 0.5 0.5 0.5 0.5 0.5 0.5 0.5 0.5 0.5 0.5 0.5 0.5 0.5 0.5 0.5 0.5 0.5 0.5 0.5 0.5 0.5 0.5 0.5 0.5 0.132208 0.867792 0.873869 0.126131 0.667166 0.33283399999999996 0.748845 0.251155 0.5 0.5 0.5 0.5 0.5 0.5 0.5 0.5 0.395434 0.6045659999999999 0.923126 0.076874 0.5 0.5 0.5 0.5 0.5 0.5 0.5 0.5 0.5 0.5 0.5 0.5 0.5 0.5 0.5 0.5 0.5 0.5 0.5 0.5 0.5 0.5 0.5 0.5 0.65276 0.34724 0.77965 0.22035000000000005 0.130484 0.869516 0.526629 0.473371 0.5 0.5 0.5 0.5 0.5 0.5 0.5 0.5 0.5 0.5 0.5 0.5 0.5 0.5 0.5 0.5 0.5 0.5 0.5 0.5 0.5 0.5 0.5 0.5 0.499329 0.500671 0.973192 0.026808000000000054 0.31405 0.6859500000000001 0.917611 0.08238900000000005 0.5 0.5 0.5 0.5 0.5 0.5 0.5 0.5 0.5 0.5 0.5 0.5 0.5 0.5 0.5 0.5 0.5 0.5 0.5 0.5 0.5 0.5 0.5 0.5 0.932482 0.06751799999999997 0.134169 0.865831 0.275294 0.7247060000000001 0.261248 0.7387520000000001 0.473177 0.526823 0.730821 0.26917899999999995 0.5 0.5 0.5 0.5 0.5 0.5 0.5 0.5 0.5 0.5 0.5 0.5 0.5 0.5 0.5 0.5 0.25777 0.74223 0.510326 0.48967400000000005 0.964431 0.03556899999999996 0.0854336 0.9145664 0.5 0.5 0.5 0.5 0.5 0.5 0.5 0.5 0.5 0.5 0.5 0.5 0.5 0.5 0.5 0.5 0.913253 0.08674700000000002 0.325563 0.674437 0.622579 0.377421 0.0823152 0.9176848 0.5 0.5 0.5 0.5 0.5 0.5 0.5 0.5 0.5 0.5 0.5 0.5 0.5 0.5 0.5 0.5 0.5 0.5 0.5 0.5 0.5 0.5 0.5 0.5 0.947592 0.05240800000000001 0.782475 0.21752499999999997 0.0328085 0.9671915 0.0276713 0.9723287 0.5 0.5 0.5 0.5 0.0829194 0.9170806 0.202651 0.797349 0.776627 0.22337300000000004 0.974677 0.025322999999999984 0.5 0.5 0.5 0.5 0.5 0.5 0.5 0.5 0.5 0.5 0.5 0.5 0.5 0.5 0.5 0.5 0.0579589 0.9420411 0.155888 0.844112 0.692245 0.307755 0.561329 0.43867100000000003 0.5 0.5 0.5 0.5 0.5 0.5 0.5 0.5 0.833025 0.16697499999999998 0.941239 0.05876099999999995 0.00439216 0.99560784 0.299482 0.700518 0.5 0.5 0.5 0.5 0.5 0.5 0.5 0.5 0.5 0.5 0.5 0.5 0.5 0.5 0.5 0.5 0.5 0.5 0.5 0.5 0.5 0.5 0.5 0.5 0.394658 0.605342 0.912752 0.08724799999999999 0.0963772 0.9036228 0.086903 0.913097 0.5 0.5 0.5 0.5 0.5 0.5 0.5 0.5
-1 -2 0
1 2 0
-2 -3 0
2 3 0
-3 -4 0
3 4 0
-4 5 0
4 -5 0
-5 6 0
5 -6 0
-6 -155 7 0
-6 155 -7 0
6 -156 7 0
6 156 -7 0
-7 8 0
7 -8 0
-8 -9 0
8 9 0
-9 -10 0
9 10 0
-10 -163 11 0
-10 163 -11 0
10 -164 11 0
10 164 -11 0
-11 12 0
11 -12 0
-1 13 0
1 -13 0
-13 -2 -14 0
-13 2 -14 0
13 -2 14 0
13 2 14 0
-14 -3 -173 15 0
-14 -3 173 -15 0
-14 3 -174 15 0
-14 3 174 -15 0
14 -3 -175 15 0
14 -3 175 -15 0
14 3 -176 15 0
14 3 176 -15 0
-15 -4 16 0
-15 4 -16 0
15 -4 16 0
15 4 16 0
-16 -5 17 0
-16 5 -17 0
16 -5 -17 0
16 5 -17 0
-17 -6 -18 0
-17 6 18 0
17 -6 18 0
17 6 18 0
-18 -7 19 0
-18 7 -19 0
18 -7 19 0
18 7 -19 0
-19 -8 20 0
-19 8 -20 0
19 -8 20 0
19 8 20 0
-20 -9 21 0
-20 9 -21 0
20 -9 21 0
20 9 21 0
-21 -10 -22 0
-21 10 22 0
21 -10 22 0
21 10 22 0
-22 -11 -205 23 0
-22 -11 205 -23 0
-22 11 -206 23 0
-22 11 206 -23 0
22 -11 -207 23 0
22 -11 207 -23 0
22 11 -208 23 0
22 11 208 -23 0
-23 -12 24 0
-23 12 24 0
23 -12 -24 0
23 12 -24 0
-13 -25 0
13 25 0
-25 -14 -215 26 0
-25 -14 215 -26 0
-25 14 -216 26 0
-25 14 216 -26 0
25 -14 -217 26 0
25 -14 217 -26 0
25 14 -218 26 0
25 14 218 -26 0
-26 -15 27 0
-26 15 -27 0
26 -15 -27 0
26 15 -27 0
-27 -16 28 0
-27 16 -28 0
27 -16 28 0
27 16 28 0
-28 -17 -227 29 0
-28 -17 227 -29 0
-28 17 -228 29 0
-28 17 228 -29 0
28 -17 -229 29 0
28 -17 229 -29 0
28 17 -230 29 0
28 17 230 -29 0
-29 -18 -231 30 0
-29 -18 231 -30 0
-29 18 -232 30 0
-29 18 232 -30 0
29 -18 -233 30 0
29 -18 233 -30 0
29 18 -234 30 0
29 18 234 -30 0
-30 -19 -31 0
-30 19 31 0
30 -19 -31 0
30 19 -31 0
-31 -20 32 0
-31 20 -32 0
31 -20 -32 0
31 20 -32 0
-32 -21 33 0
-32 21 -33 0
32 -21 -33 0
32 21 -33 0
-33 -22 34 0
-33 22 34 0
33 -22 -34 0
33 22 -34 0
-34 -23 -251 35 0
-34 -23 251 -35 0
-34 23 -252 35 0
-34 23 252 -35 0
34 -23 -253 35 0
34 -23 253 -35 0
34 23 -254 35 0
34 23 254 -35 0
-35 -24 -255 36 0
-35 -24 255 -36 0
-35 24 -256 36 0
-35 24 256 -36 0
35 -24 -257 36 0
35 -24 257 -36 0
35 24 -258 36 0
35 24 258 -36 0
-25 37 0
25 -37 0
-37 -26 -38 0
-37 26 38 0
37 -26 -38 0
37 26 38 0
-38 -27 39 0
-38 27 39 0
38 -27 -39 0
38 27 39 0
-39 -28 -40 0
-39 28 40 0
39 -28 -40 0
39 28 -40 0
-40 -29 41 0
-40 29 -41 0
40 -29 -41 0
40 29 -41 0
-41 -30 -42 0
-41 30 42 0
41 -30 42 0
41 30 42 0
-42 -31 -43 0
-42 31 -43 0
42 -31 -43 0
42 31 43 0
-43 -32 -44 0
-43 32 44 0
43 -32 44 0
43 32 -44 0
-44 -33 45 0
-44 33 45 0
44 -33 -45 0
44 33 45 0
-45 -34 -293 46 0
-45 -34 293 -46 0
-45 34 -294 46 0
-45 34 294 -46 0
45 -34 -295 46 0
45 -34 295 -46 0
45 34 -296 46 0
45 34 296 -46 0
-46 -35 47 0
-46 35 47 0
46 -35 -47 0
46 35 -47 0
-47 -36 48 0
-47 36 -48 0
47 -36 48 0
47 36 -48 0
-37 -305 49 0
-37 305 -49 0
37 -306 49 0
37 306 -49 0
-49 -38 -50 0
-49 38 -50 0
49 -38 50 0
49 38 -50 0
-50 -39 -51 0
-50 39 -51 0
50 -39 -51 0
50 39 51 0
-51 -40 52 0
-51 40 -52 0
51 -40 -52 0
51 40 52 0
-52 -41 -53 0
-52 41 -53 0
52 -41 53 0
52 41 53 0
-53 -42 54 0
-53 42 54 0
53 -42 54 0
53 42 -54 0
-54 -43 -55 0
-54 43 55 0
54 -43 55 0
54 43 55 0
-55 -44 56 0
-55 44 56 0
55 -44 -56 0
55 44 -56 0
-56 -45 57 0
-56 45 57 0
56 -45 -57 0
56 45 -57 0
-57 -46 -58 0
-57 46 58 0
57 -46 58 0
57 46 -58 0
-58 -47 59 0
-58 47 -59 0
58 -47 -59 0
58 47 -59 0
-59 -48 -60 0
-59 48 -60 0
59 -48 60 0
59 48 60 0
-49 61 0
49 -61 0
-61 -50 -353 62 0
-61 -50 353 -62 0
-61 50 -354 62 0
-61 50 354 -62 0
61 -50 -355 62 0
61 -50 355 -62 0
61 50 -356 62 0
61 50 356 -62 0
-62 -51 -357 63 0
-62 -51 357 -63 0
-62 51 -358 63 0
-62 51 358 -63 0
62 -51 -359 63 0
62 -51 359 -63 0
62 51 -360 63 0
62 51 360 -63 0
-63 -52 -64 0
-63 52 64 0
63 -52 64 0
63 52 64 0
-64 -53 -65 0
-64 53 65 0
64 -53 -65 0
64 53 -65 0
-65 -54 -369 66 0
-65 -54 369 -66 0
-65 54 -370 66 0
-65 54 370 -66 0
65 -54 -371 66 0
65 -54 371 -66 0
65 54 -372 66 0
65 54 372 -66 0
-66 -55 -67 0
-66 55 -67 0
66 -55 -67 0
66 55 67 0
-67 -56 -68 0
-67 56 68 0
67 -56 68 0
67 56 68 0
-68 -57 -381 69 0
-68 -57 381 -69 0
-68 57 -382 69 0
-68 57 382 -69 0
68 -57 -383 69 0
68 -57 383 -69 0
68 57 -384 69 0
68 57 384 -69 0
-69 -58 -70 0
-69 58 -70 0
69 -58 70 0
69 58 -70 0
-70 -59 71 0
-70 59 -71 0
70 -59 71 0
70 59 -71 0
-71 -60 -72 0
-71 60 72 0
71 -60 72 0
71 60 72 0
-61 -397 73 0
-61 397 -73 0
61 -398 73 0
61 398 -73 0
-73 -62 -74 0
-73 62 -74 0
73 -62 -74 0
73 62 74 0
-74 -63 75 0
-74 63 75 0
74 -63 75 0
74 63 -75 0
-75 -64 -76 0
-75 64 76 0
75 -64 -76 0
75 64 -76 0
-76 -65 77 0
-76 65 -77 0
76 -65 -77 0
76 65 -77 0
-77 -66 -415 78 0
-77 -66 415 -78 0
-77 66 -416 78 0
-77 66 416 -78 0
77 -66 -417 78 0
77 -66 417 -78 0
77 66 -418 78 0
77 66 418 -78 0
-78 -67 -79 0
-78 67 -79 0
78 -67 79 0
78 67 79 0
-79 -68 -80 0
-79 68 80 0
79 -68 80 0
79 68 -80 0
-80 -69 81 0
-80 69 -81 0
80 -69 81 0
80 69 -81 0
-81 -70 -431 82 0
-81 -70 431 -82 0
-81 70 -432 82 0
-81 70 432 -82 0
81 -70 -433 82 0
81 -70 433 -82 0
81 70 -434 82 0
81 70 434 -82 0
-82 -71 83 0
-82 71 83 0
82 -71 83 0
82 71 -83 0
-83 -72 84 0
-83 72 84 0
83 -72 -84 0
83 72 -84 0
-73 -85 0
73 85 0
-85 -74 86 0
-85 74 -86 0
85 -74 86 0
85 74 86 0
-86 -75 -87 0
-86 75 -87 0
86 -75 -87 0
86 75 87 0
-87 -76 88 0
-87 76 88 0
87 -76 -88 0
87 76 88 0
-88 -77 89 0
-88 77 89 0
88 -77 -89 0
88 77 89 0
-89 -78 90 0
-89 78 90 0
89 -78 -90 0
89 78 -90 0
-90 -79 -465 91 0
-90 -79 465 -91 0
-90 79 -466 91 0
-90 79 466 -91 0
90 -79 -467 91 0
90 -79 467 -91 0
90 79 -468 91 0
90 79 468 -91 0
-91 -80 92 0
-91 80 92 0
91 -80 92 0
91 80 -92 0
-92 -81 93 0
-92 81 -93 0
92 -81 -93 0
92 81 -93 0
-93 -82 -94 0
-93 82 94 0
93 -82 94 0
93 82 -94 0
-94 -83 95 0
-94 83 -95 0
94 -83 95 0
94 83 95 0
-95 -84 -96 0
-95 84 -96 0
95 -84 96 0
95 84 -96 0
-85 97 0
85 -97 0
-97 -86 -491 98 0
-97 -86 491 -98 0
-97 86 -492 98 0
-97 86 492 -98 0
97 -86 -493 98 0
97 -86 493 -98 0
97 86 -494 98 0
97 86 494 -98 0
-98 -87 -99 0
-98 87 99 0
98 -87 -99 0
98 87 99 0
-99 -88 -499 100 0
-99 -88 499 -100 0
-99 88 -500 100 0
-99 88 500 -100 0
99 -88 -501 100 0
99 -88 501 -100 0
99 88 -502 100 0
99 88 502 -100 0
-100 -89 -503 101 0
-100 -89 503 -101 0
-100 89 -504 101 0
-100 89 504 -101 0
100 -89 -505 101 0
100 -89 505 -101 0
100 89 -506 101 0
100 89 506 -101 0
-101 -90 102 0
-101 90 102 0
101 -90 102 0
101 90 -102 0
-102 -91 103 0
-102 91 -103 0
102 -91 103 0
102 91 103 0
-103 -92 -104 0
-103 92 -104 0
103 -92 104 0
103 92 -104 0
-104 -93 -105 0
-104 93 105 0
104 -93 105 0
104 93 105 0
-105 -94 -106 0
-105 94 106 0
105 -94 -106 0
105 94 106 0
-106 -95 -527 107 0
-106 -95 527 -107 0
-106 95 -528 107 0
-106 95 528 -107 0
106 -95 -529 107 0
106 -95 529 -107 0
106 95 -530 107 0
106 95 530 -107 0
-107 -96 -108 0
-107 96 108 0
107 -96 108 0
107 96 108 0
-97 -535 109 0
-97 535 -109 0
97 -536 109 0
97 536 -109 0
-109 -98 -110 0
-109 98 -110 0
109 -98 110 0
109 98 -110 0
-110 -99 -111 0
-110 99 -111 0
110 -99 -111 0
110 99 111 0
-111 -100 -112 0
-111 100 -112 0
111 -100 112 0
111 100 112 0
-112 -101 -549 113 0
-112 -101 549 -113 0
-112 101 -550 113 0
-112 101 550 -113 0
112 -101 -551 113 0
112 -101 551 -113 0
112 101 -552 113 0
112 101 552 -113 0
-113 -102 -114 0
-113 102 114 0
113 -102 114 0
113 102 -114 0
-114 -103 -115 0
-114 103 115 0
114 -103 115 0
114 103 -115 0
-115 -104 116 0
-115 104 -116 0
115 -104 116 0
115 104 116 0
-116 -105 -565 117 0
-116 -105 565 -117 0
-116 105 -566 117 0
-116 105 566 -117 0
116 -105 -567 117 0
116 -105 567 -117 0
116 105 -568 117 0
116 105 568 -117 0
-117 -106 -118 0
-117 106 118 0
117 -106 118 0
117 106 118 0
-118 -107 -119 0
-118 107 119 0
118 -107 -119 0
118 107 -119 0
-119 -108 120 0
-119 108 -120 0
119 -108 -120 0
119 108 -120 0
-109 -581 121 0
-109 581 -121 0
109 -582 121 0
109 582 -121 0
-121 -110 -583 122 0
-121 -110 583 -122 0
-121 110 -584 122 0
-121 110 584 -122 0
121 -110 -585 122 0
121 -110 585 -122 0
121 110 -586 122 0
121 110 586 -122 0
-122 -111 -123 0
-122 111 -123 0
122 -111 -123 0
122 111 123 0
-123 -112 124 0
-123 112 -124 0
123 -112 124 0
123 112 124 0
-124 -113 -595 125 0
-124 -113 595 -125 0
-124 113 -596 125 0
-124 113 596 -125 0
124 -113 -597 125 0
124 -113 597 -125 0
124 113 -598 125 0
124 113 598 -125 0
-125 -114 -126 0
-125 114 126 0
125 -114 -126 0
125 114 -126 0
-126 -115 127 0
-126 115 127 0
126 -115 -127 0
126 115 127 0
-127 -116 -607 128 0
-127 -116 607 -128 0
-127 116 -608 128 0
-127 116 608 -128 0
127 -116 -609 128 0
127 -116 609 -128 0
127 116 -610 128 0
127 116 610 -128 0
-128 -117 -129 0
-128 117 -129 0
128 -117 129 0
128 117 -129 0
-129 -118 130 0
-129 118 130 0
129 -118 -130 0
129 118 -130 0
-130 -119 131 0
-130 119 131 0
130 -119 -131 0
130 119 -131 0
-131 -120 -623 132 0
-131 -120 623 -132 0
-131 120 -624 132 0
-131 120 624 -132 0
131 -120 -625 132 0
131 -120 625 -132 0
131 120 -626 132 0
131 120 626 -132 0
-121 133 0
121 -133 0
-133 -122 -629 134 0
-133 -122 629 -134 0
-133 122 -630 134 0
-133 122 630 -134 0
133 -122 -631 134 0
133 -122 631 -134 0
133 122 -632 134 0
133 122 632 -134 0
-134 -123 135 0
-134 123 135 0
134 -123 -135 0
134 123 135 0
-135 -124 -136 0
-135 124 -136 0
135 -124 136 0
135 124 -136 0
-136 -125 -641 137 0
-136 -125 641 -137 0
-136 125 -642 137 0
-136 125 642 -137 0
136 -125 -643 137 0
136 -125 643 -137 0
136 125 -644 137 0
136 125 644 -137 0
-137 -126 138 0
-137 126 -138 0
137 -126 -138 0
137 126 138 0
-138 -127 -649 139 0
-138 -127 649 -139 0
-138 127 -650 139 0
-138 127 650 -139 0
138 -127 -651 139 0
138 -127 651 -139 0
138 127 -652 139 0
138 127 652 -139 0
-139 -128 -140 0
-139 128 -140 0
139 -128 140 0
139 128 140 0
-140 -129 -141 0
-140 129 -141 0
140 -129 -141 0
140 129 141 0
-141 -130 142 0
-141 130 142 0
141 -130 -142 0
141 130 -142 0
-142 -131 -665 143 0
-142 -131 665 -143 0
-142 131 -666 143 0
-142 131 666 -143 0
142 -131 -667 143 0
142 -131 667 -143 0
142 131 -668 143 0
142 131 668 -143 0
-143 -132 -144 0
-143 132 -144 0
143 -132 144 0
143 132 -144 0
144 0
