data/benchmarks/bayes/75-12-4-q.gr
p tw 672 757
55 66
37 305
67 68
99 100
88 100
122 632
127 607
116 607
100 501
70 82
8 9
40 41
29 41
100 101
65 372
11 23
121 133
41 42
73 74
62 74
23 253
61 356
50 356
133 134
44 56
7 156
70 432
14 15
3 15
74 75
106 107
95 107
62 357
116 566
105 566
122 133
45 295
34 295
15 16
82 433
109 536
47 48
36 48
54 371
125 642
107 108
96 108
18 30
117 567
128 140
30 233
137 643
21 32
80 81
69 81
140 141
101 549
113 551
113 124
129 141
10 22
68 381
57 381
81 82
54 65
102 114
34 254
22 23
43 55
106 529
95 529
114 115
87 98
103 115
133 632
99 499
88 499
55 56
28 39
76 88
122 631
88 99
29 40
77 89
23 207
65 371
2 13
62 73
78 417
110 122
61 355
50 355
70 431
3 14
51 63
35 46
95 106
116 565
105 565
18 231
125 641
109 535
36 47
128 139
143 667
30 232
21 22
69 80
113 114
139 651
10 21
54 55
102 113
34 253
43 54
87 88
133 631
28 29
17 29
81 431
11 205
76 87
88 89
109 121
122 630
29 30
61 62
50 62
136 641
23 206
66 415
121 122
2 3
112 549
62 63
94 95
83 95
78 416
132 625
110 121
61 354
142 666
3 4
125 595
35 36
24 36
26 216
95 96
84 96
127 128
116 128
131 665
9 20
68 69
57 69
128 129
117 129
91 467
143 666
30 231
127 649
69 70
42 53
58 70
101 102
90 102
10 11
139 650
31 43
102 103
75 86
63 359
91 103
123 135
43 44
16 27
32 44
64 76
122 584
135 136
108 119
124 136
89 505
5 17
18 234
17 28
98 492
76 77
65 77
97 109
97 536
101 506
6 18
128 609
50 61
98 110
82 93
120 623
39 51
23 34
83 94
132 624
115 126
131 143
142 665
24 35
72 84
56 67
26 215
116 127
36 256
9 10
57 68
89 100
81 434
11 208
91 466
30 41
42 43
90 101
121 583
134 135
66 418
31 42
113 597
75 76
15 174
14 218
63 358
123 134
16 17
125 598
64 75
122 583
89 504
5 16
73 398
49 50
38 50
131 668
98 491
29 230
109 110
130 142
49 306
128 608
50 51
127 652
82 83
71 83
138 649
142 143
23 24
12 24
22 208
83 84
115 116
104 116
110 586
35 254
77 418
56 57
45 57
97 494
86 494
116 117
105 117
124 597
36 255
57 58
46 58
46 296
89 90
78 90
100 505
29 234
66 372
109 581
91 465
30 31
19 31
90 91
63 74
79 91
111 123
25 218
121 582
120 626
31 32
4 15
20 32
52 64
141 142
113 596
15 173
69 382
123 124
112 124
14 217
63 357
35 258
24 258
64 65
53 65
85 97
28 228
17 228
107 530
5 6
26 38
90 468
73 397
51 360
79 468
38 49
100 500
97 98
70 81
86 98
29 229
118 130
130 141
49 305
27 39
11 22
128 607
71 82
119 131
14 176
3 176
121 586
23 252
12 23
22 207
44 55
7 155
60 72
104 115
134 632
1 13
122 123
35 253
62 356
131 626
45 56
45 294
34 294
82 432
93 105
124 596
54 370
96 107
18 29
117 566
127 610
116 610
46 295
78 89
100 504
137 642
126 138
66 371
19 30
113 550
129 140
63 64
111 122
138 652
121 581
4 5
25 37
52 63
69 381
106 528
95 528
103 114
37 38
35 257
62 360
28 227
17 227
107 529
26 37
51 359
70 71
59 71
100 499
118 129
130 131
77 88
11 12
65 370
101 552
92 104
14 175
3 175
68 384
57 384
23 251
44 45
33 45
50 354
125 137
51 62
134 631
62 355
66 78
45 293
34 293
82 431
99 502
88 502
137 138
124 595
54 369
18 19
7 19
117 565
10 164
99 111
100 503
137 641
129 130
40 52
113 549
111 112
100 112
132 144
73 85
34 252
70 434
103 104
14 26
106 527
95 527
133 630
85 86
62 359
116 568
105 568
106 118
125 644
136 137
122 629
47 59
59 70
118 119
107 119
77 78
23 205
65 369
80 92
101 551
92 103
68 383
57 383
110 111
78 415
33 44
61 353
50 353
81 93
51 52
125 136
84 95
143 144
62 354
66 77
114 126
99 501
88 501
117 128
55 67
10 163
143 665
99 110
58 69
136 644
40 51
139 649
132 143
112 552
91 102
25 26
34 251
32 43
70 433
14 25
114 125
133 629
124 135
17 18
116 567
105 567
106 117
18 233
65 76
125 643
97 535
47 58
101 505
6 17
30 234
98 109
21 33
80 91
113 125
39 50
132 623
131 142
54 66
13 25
72 83
6 156
87 99
117 118
28 40
81 433
11 207
120 132
58 59
136 643
23 208
61 73
66 417
91 92
2 14
112 551
78 418
94 106
32 33
142 668
125 597
89 503
124 125
26 218
35 47
127 139
65 66
131 667
18 232
68 80
6 7
101 504
139 140
143 668
127 651
98 99
101 113
39 40
139 652
131 132
110 585
77 417
97 493
86 493
105 116
6 155
122 586
46 57
98 494
29 233
81 432
11 206
120 131
79 90
25 217
136 642
66 416
120 625
20 31
113 595
112 550
112 123
14 216
132 626
94 105
24 257
53 64
142 667
125 596
26 217
38 39
36 258
90 467
79 467
127 138
131 666
86 97
9 21
29 228
68 79
27 38
91 468
101 503
71 72
127 650
119 130
42 54
121 585
101 112
22 206
60 71
104 105
15 176
75 87
13 14
63 360
35 252
45 46
34 46
110 584
77 416
131 625
93 104
105 106
16 28
97 492
86 492
122 585
108 120
46 47
78 79
67 79
89 506
127 609
46 294
116 609
126 137
98 493
138 139
29 232
49 61
66 370
19 20
8 20
79 80
128 610
138 651
25 216
82 94
20 21
120 624
52 53
41 53
112 113
23 35
14 215
115 127
53 54
35 256
24 256
74 86
56 68
11 164
26 27
15 27
107 528
36 257
86 87
51 358
90 466
79 466
29 227
89 101
27 28
48 60
119 120
30 42
14 174
3 174
121 584
22 205
113 598
134 630
1 2
15 175
69 384
22 34
110 583
35 251
34 45
93 94
77 415
61 398
131 624
97 491
86 491
28 230
17 230
7 18
37 306
67 78
126 127
127 608
46 293
100 502
116 608
29 231
66 369
8 19
28 229
100 111
138 650
25 215
41 52
23 254
88 500
35 255
24 255
62 358
74 85
122 134
45 296
34 296
82 434
124 598
11 163
15 26
54 372
59 60
107 527
90 465
79 465
51 357
117 568
107 118
100 506
137 644
109 582
48 59
92 93
101 550
113 552
63 75
14 173
3 173
68 382
33 34
57 382
81 92
4 16
125 126
134 629
69 383
22 33
34 35
66 67
106 530
95 530
62 353
131 623
61 397
99 500
37 49
7 8
17 229
